
Gurobi 10.0.1 (linux64) logging started Wed May 31 13:30:56 2023

Set parameter LogFile to value "logFiles/A-2L-C/A-2L-6U-11F-15V-180D-basic.log"
Gurobi Optimizer version 10.0.1 build v10.0.1rc0 (linux64)

CPU model: Intel(R) Xeon(R) Gold 5115 CPU @ 2.40GHz, instruction set [SSE2|AVX|AVX2|AVX512]
Thread count: 20 physical cores, 40 logical processors, using up to 20 threads

Optimize a model with 54545 rows, 646434 columns and 3648556 nonzeros
Model fingerprint: 0x48932aba
Variable types: 1616 continuous, 644818 integer (644818 binary)
Coefficient statistics:
  Matrix range     [1e+00, 2e+05]
  Objective range  [4e+01, 3e+07]
  Bounds range     [1e+00, 1e+00]
  RHS range        [1e+00, 4e+06]
Presolve removed 31993 rows and 35810 columns (presolve time = 5s) ...
Presolve removed 31993 rows and 35810 columns (presolve time = 10s) ...
Presolve removed 31937 rows and 35754 columns
Presolve time: 10.95s
Presolved: 22608 rows, 610680 columns, 2916739 nonzeros
Variable types: 1635 continuous, 609045 integer (609020 binary)
Deterministic concurrent LP optimizer: primal simplex, dual simplex, and barrier
Showing barrier log only...

Root barrier log...

Ordering time: 0.96s

Barrier statistics:
 AA' NZ     : 1.505e+06
 Factor NZ  : 1.381e+07 (roughly 400 MB of memory)
 Factor Ops : 3.191e+10 (less than 1 second per iteration)
 Threads    : 17

                  Objective                Residual
Iter       Primal          Dual         Primal    Dual     Compl     Time
   0  -5.75216700e+16  2.65196758e+12  6.51e+09 5.95e+04  2.38e+11    17s
   1  -1.24693153e+16  4.39730180e+12  1.42e+09 4.32e+05  5.23e+10    18s
   2  -1.69831966e+15  4.79139011e+12  1.95e+08 1.69e-09  7.23e+09    18s
   3  -3.62999418e+13  3.16301024e+12  4.17e+06 1.63e-09  1.57e+08    18s
   4  -7.15539935e+12  5.91324869e+11  8.19e+05 1.51e-09  3.23e+07    19s
   5  -1.86413498e+12  5.65690707e+11  2.13e+05 1.51e-09  8.75e+06    19s
   6  -6.05864541e+11  4.21354843e+11  6.94e+04 1.16e-09  3.03e+06    19s
   7  -2.30113235e+11  3.52598036e+11  2.64e+04 1.05e-08  1.28e+06    20s
   8  -1.17334950e+11  2.55881511e+11  1.36e+04 1.05e-09  6.89e+05    20s
   9  -3.04571602e+10  1.10285575e+11  3.63e+03 4.00e-08  2.01e+05    20s
  10  -9.53169768e+09  4.49907029e+10  1.24e+03 2.37e-08  6.90e+04    21s
  11  -2.30706400e+09  3.19245208e+10  4.78e+02 2.14e-08  3.60e+04    21s
  12  -6.76000237e+07  2.41084037e+10  2.04e+02 2.09e-08  2.31e+04    21s
  13   3.86026962e+08  1.79604923e+10  1.50e+02 1.22e-08  1.67e+04    22s
  14   6.84154405e+08  7.42986632e+09  1.14e+02 2.40e-08  7.40e+03    22s
  15   9.73161601e+08  5.97255230e+09  8.02e+01 2.24e-08  5.42e+03    23s
  16   1.09255288e+09  4.80616706e+09  6.64e+01 3.73e-08  4.14e+03    23s
  17   1.21334390e+09  4.22645793e+09  5.23e+01 2.92e-08  3.33e+03    24s
  18   1.33348590e+09  3.71732181e+09  3.88e+01 2.79e-08  2.59e+03    24s
  19   1.39688570e+09  3.29809949e+09  3.13e+01 2.21e-08  2.07e+03    24s
  20   1.50504111e+09  2.93550066e+09  2.00e+01 2.73e-08  1.50e+03    25s
  21   1.54211423e+09  2.67760965e+09  1.60e+01 2.79e-08  1.19e+03    25s
  22   1.57477826e+09  2.51387413e+09  1.27e+01 2.85e-08  9.70e+02    26s
  23   1.60327571e+09  2.36372039e+09  1.01e+01 3.29e-08  7.76e+02    26s
  24   1.62936859e+09  2.26137836e+09  7.38e+00 2.44e-08  6.25e+02    27s
  25   1.64778152e+09  2.10532209e+09  5.50e+00 2.70e-08  4.46e+02    27s
  26   1.65123594e+09  2.08850362e+09  5.18e+00 2.75e-08  4.24e+02    28s
  27   1.67266642e+09  1.92442474e+09  3.30e+00 2.98e-08  2.38e+02    28s
  28   1.68460840e+09  1.85326835e+09  2.34e+00 3.37e-08  1.55e+02    29s
  29   1.68788159e+09  1.82276230e+09  2.08e+00 2.79e-08  1.23e+02    29s
  30   1.69566982e+09  1.79980639e+09  1.45e+00 2.67e-08  9.23e+01    29s
  31   1.70157760e+09  1.78458797e+09  1.08e+00 2.73e-08  7.21e+01    30s
  32   1.70563295e+09  1.76363288e+09  8.31e-01 2.49e-08  4.95e+01    30s
  33   1.71163808e+09  1.75319739e+09  5.54e-01 2.98e-08  3.49e+01    31s
  34   1.71451220e+09  1.74743327e+09  4.38e-01 2.40e-08  2.75e+01    31s
  35   1.71845183e+09  1.74363350e+09  3.06e-01 3.04e-08  2.09e+01    32s
  36   1.71969010e+09  1.73969447e+09  2.70e-01 3.00e-08  1.65e+01    32s
  37   1.72029368e+09  1.73901836e+09  2.51e-01 3.98e-08  1.54e+01    33s
  38   1.72247243e+09  1.73658355e+09  1.80e-01 3.70e-08  1.16e+01    33s
  39   1.72365055e+09  1.73498204e+09  1.48e-01 2.75e-08  9.29e+00    34s
  40   1.72518132e+09  1.73420672e+09  1.08e-01 2.61e-08  7.39e+00    34s
  41   1.72613427e+09  1.73358003e+09  8.70e-02 3.27e-08  6.09e+00    35s
  42   1.72687823e+09  1.73306217e+09  7.08e-02 2.88e-08  5.06e+00    35s
  43   1.72736261e+09  1.73288795e+09  6.06e-02 3.77e-08  4.52e+00    36s
  44   1.72779026e+09  1.73228654e+09  5.15e-02 3.10e-08  3.68e+00    36s
  45   1.72825052e+09  1.73201476e+09  4.24e-02 3.13e-08  3.08e+00    37s
  46   1.72869265e+09  1.73171017e+09  3.36e-02 3.55e-08  2.47e+00    37s
  47   1.72927476e+09  1.73142754e+09  2.25e-02 4.03e-08  1.76e+00    38s
  48   1.72954134e+09  1.73120462e+09  1.74e-02 2.93e-08  1.36e+00    38s
  49   1.72981064e+09  1.73112711e+09  1.24e-02 2.43e-08  1.08e+00    39s
  50   1.72996998e+09  1.73092614e+09  9.47e-03 2.39e-08  7.82e-01    39s
  51   1.73007343e+09  1.73084252e+09  7.62e-03 2.99e-08  6.29e-01    40s
  52   1.73025160e+09  1.73074158e+09  4.41e-03 2.98e-08  4.01e-01    40s
  53   1.73038259e+09  1.73064389e+09  2.14e-03 2.61e-08  2.14e-01    40s
  54   1.73046921e+09  1.73056587e+09  7.13e-04 3.59e-08  7.92e-02    41s
  55   1.73049771e+09  1.73053715e+09  2.64e-04 2.11e-08  3.23e-02    41s
  56   1.73050844e+09  1.73052579e+09  1.01e-04 2.23e-08  1.42e-02    42s
  57   1.73051273e+09  1.73051877e+09  3.90e-05 2.45e-08  4.96e-03    42s
  58   1.73051459e+09  1.73051682e+09  1.31e-05 2.01e-08  1.83e-03    42s
  59   1.73051534e+09  1.73051605e+09  3.14e-06 2.65e-08  5.83e-04    43s
  60   1.73051557e+09  1.73051568e+09  4.61e-07 2.98e-08  9.30e-05    43s
  61   1.73051561e+09  1.73051562e+09  1.98e-09 2.98e-08  2.07e-06    44s
  62   1.73051561e+09  1.73051561e+09  4.07e-10 2.26e-08  6.08e-11    44s

Barrier solved model in 62 iterations and 44.20 seconds (40.22 work units)
Optimal objective 1.73051561e+09


Root crossover log...

   17179 DPushes remaining with DInf 0.0000000e+00                44s
      33 DPushes remaining with DInf 0.0000000e+00                45s
       0 DPushes remaining with DInf 0.0000000e+00                46s

     982 PPushes remaining with PInf 0.0000000e+00                46s
       0 PPushes remaining with PInf 0.0000000e+00                46s

  Push phase complete: Pinf 0.0000000e+00, Dinf 7.2147127e-08     46s


Root simplex log...

Iteration    Objective       Primal Inf.    Dual Inf.      Time
   18163    1.7305156e+09   0.000000e+00   0.000000e+00     46s
Concurrent spin time: 0.01s

Solved with barrier
   18163    1.7305156e+09   0.000000e+00   0.000000e+00     46s

Root relaxation: objective 1.730516e+09, 18163 iterations, 32.76 seconds (23.98 work units)

    Nodes    |    Current Node    |     Objective Bounds      |     Work
 Expl Unexpl |  Obj  Depth IntInf | Incumbent    BestBd   Gap | It/Node Time

     0     0 1.7305e+09    0 1080          - 1.7305e+09      -     -   50s

Explored 1 nodes (33463 simplex iterations) in 60.02 seconds (49.63 work units)
Thread count was 20 (of 40 available processors)

Solution count 0

Time limit reached
Best objective -, best bound 1.730515614155e+09, gap -
IIS computation: initial model status unknown, solving to determine model status
Presolve removed 31993 rows and 35810 columns (presolve time = 5s) ...
Presolve removed 31993 rows and 35810 columns (presolve time = 10s) ...
Presolve removed 31937 rows and 35754 columns
Presolve time: 10.64s
Presolved: 22608 rows, 610680 columns, 2916739 nonzeros
Variable types: 1635 continuous, 609045 integer (609020 binary)
Deterministic concurrent LP optimizer: primal simplex, dual simplex, and barrier
Showing barrier log only...

Root barrier log...

Ordering time: 0.93s

Barrier statistics:
 AA' NZ     : 1.505e+06
 Factor NZ  : 1.381e+07 (roughly 400 MB of memory)
 Factor Ops : 3.191e+10 (less than 1 second per iteration)
 Threads    : 18

                  Objective                Residual
Iter       Primal          Dual         Primal    Dual     Compl     Time
   0  -0.00000000e+00  2.10478591e+05  6.51e+09 0.00e+00  1.81e+04    17s
   1  -0.00000000e+00  3.37262419e+05  1.42e+09 3.16e-02  3.98e+03    17s
   2  -0.00000000e+00  3.60806572e+05  5.95e+07 9.71e-17  1.68e+02    18s
   3  -0.00000000e+00  1.88078218e+05  2.59e+06 1.25e-16  7.44e+00    18s
   4  -0.00000000e+00  3.65815977e+04  4.32e+05 7.55e-17  9.07e-01    19s
   5  -0.00000000e+00  1.89070039e+04  1.43e+05 4.67e-17  2.14e-01    19s
   6  -0.00000000e+00  1.27172845e+04  6.24e+04 7.57e-09  8.08e-02    19s
   7  -0.00000000e+00  4.16406544e+03  1.66e+04 2.48e-09  1.26e-02    20s
   8  -0.00000000e+00  3.52314448e+03  8.46e+03 2.19e-09  7.21e-03    20s
   9  -0.00000000e+00  1.15449151e+03  5.96e+03 3.55e-08  2.87e-03    21s
  10  -0.00000000e+00  2.93939667e+02  1.46e+03 6.20e-08  5.45e-04    21s
  11  -0.00000000e+00  1.18591477e+02  4.22e+02 4.78e-08  1.69e-04    21s
  12  -0.00000000e+00  6.61867628e+01  1.75e+02 3.21e-08  8.31e-05    22s
  13  -0.00000000e+00  3.64740667e+01  7.59e+01 2.16e-08  4.21e-05    22s
  14  -0.00000000e+00  2.80379112e+01  4.33e+01 1.75e-08  2.99e-05    23s
  15  -0.00000000e+00  2.21314835e+01  3.53e+01 1.41e-08  2.38e-05    23s
  16  -0.00000000e+00  1.29081547e+01  2.82e+01 1.40e-08  1.52e-05    23s
  17  -0.00000000e+00  6.78005870e+00  2.17e+01 2.20e-08  9.05e-06    24s
  18  -0.00000000e+00  4.12546453e+00  1.80e+01 3.14e-08  6.14e-06    24s
  19  -0.00000000e+00  2.83666573e+00  9.54e+00 4.71e-08  3.71e-06    25s
  20  -0.00000000e+00  1.01326541e+00  8.81e-01 7.54e-08  9.89e-07    25s
  21  -0.00000000e+00  9.29551839e-02  4.68e-01 2.02e-08  1.07e-07    26s
  22  -0.00000000e+00  2.88468857e-04  2.19e-03 6.92e-11  3.50e-10    26s
  23  -0.00000000e+00  1.27369318e-07  1.48e-05 3.25e-14  1.54e-13    27s
  24  -0.00000000e+00  8.55073312e-13  1.01e-10 9.82e-17  1.03e-18    27s

Barrier solved model in 24 iterations and 27.32 seconds (30.12 work units)
Optimal objective -0.00000000e+00

  Building initial crossover basis                                31s
  Building initial crossover basis                                35s
  Building initial crossover basis                                40s
  Building initial crossover basis                                45s
  Building initial crossover basis                                50s

Root crossover log...

   17402 DPushes remaining with DInf 2.1313085e+01                54s
       0 DPushes remaining with DInf 0.0000000e+00                54s

     331 PPushes remaining with PInf 1.1552553e-04                54s
       0 PPushes remaining with PInf 0.0000000e+00                54s

  Push phase complete: Pinf 0.0000000e+00, Dinf 0.0000000e+00     54s


Root simplex log...

Iteration    Objective       Primal Inf.    Dual Inf.      Time
    1646   -0.0000000e+00   0.000000e+00   0.000000e+00     54s
Concurrent spin time: 0.00s

Solved with barrier
    1646   -0.0000000e+00   0.000000e+00   0.000000e+00     55s

Root relaxation: objective -0.000000e+00, 1646 iterations, 41.50 seconds (35.07 work units)

    Nodes    |    Current Node    |     Objective Bounds      |     Work
 Expl Unexpl |  Obj  Depth IntInf | Incumbent    BestBd   Gap | It/Node Time

     0     0   -0.00000    0 1008          -   -0.00000      -     -   60s

Explored 1 nodes (2491 simplex iterations) in 60.02 seconds (56.70 work units)
Thread count was 20 (of 40 available processors)

Solution count 0

Time limit reached
Best objective -, best bound -0.000000000000e+00, gap -
IIS runtime: 60.06 seconds (56.70 work units)
